data/lp_files/pEFS/66_7.lp
\ Model foo
\ LP format - for model browsing. Use MPS format to capture full model detail.
Minimize
  z
Subject To
 allocateEach[1]: x[1,1] + x[2,1] + x[3,1] + x[4,1] = 1
 allocateEach[2]: x[1,2] + x[2,2] + x[3,2] + x[4,2] = 1
 allocateEach[3]: x[1,3] + x[2,3] + x[3,3] + x[4,3] = 1
 allocateEach[4]: x[1,4] + x[2,4] + x[3,4] + x[4,4] = 1
 allocateEach[5]: x[1,5] + x[2,5] + x[3,5] + x[4,5] = 1
 allocateEach[6]: x[1,6] + x[2,6] + x[3,6] + x[4,6] = 1
 allocateAllCash: cashProportion[1] + cashProportion[2] + cashProportion[3]
   + cashProportion[4] = 1
 findWorstP[1,2]: z + 0.1279918085242545 cashProportion[1]
   - 0.1279918085242545 cashProportion[2] + 0.1408763172490294 x[1,1]
   + 0.1686932036349674 x[1,2] + 0.1619523017193567 x[1,3]
   + 0.102926746021588 x[1,4] + 0.1211442467682068 x[1,5]
   + 0.1764153760825974 x[1,6] - 0.1408763172490294 x[2,1]
   - 0.1686932036349674 x[2,2] - 0.1619523017193567 x[2,3]
   - 0.102926746021588 x[2,4] - 0.1211442467682068 x[2,5]
   - 0.1764153760825974 x[2,6] >= 0
 findWorstP[1,3]: z + 0.1279918085242545 cashProportion[1]
   - 0.1279918085242545 cashProportion[3] + 0.1408763172490294 x[1,1]
   + 0.1686932036349674 x[1,2] + 0.1619523017193567 x[1,3]
   + 0.102926746021588 x[1,4] + 0.1211442467682068 x[1,5]
   + 0.1764153760825974 x[1,6] - 0.1408763172490294 x[3,1]
   - 0.1686932036349674 x[3,2] - 0.1619523017193567 x[3,3]
   - 0.102926746021588 x[3,4] - 0.1211442467682068 x[3,5]
   - 0.1764153760825974 x[3,6] >= 0
 findWorstP[1,4]: z + 0.1279918085242545 cashProportion[1]
   - 0.1279918085242545 cashProportion[4] + 0.1408763172490294 x[1,1]
   + 0.1686932036349674 x[1,2] + 0.1619523017193567 x[1,3]
   + 0.102926746021588 x[1,4] + 0.1211442467682068 x[1,5]
   + 0.1764153760825974 x[1,6] - 0.1408763172490294 x[4,1]
   - 0.1686932036349674 x[4,2] - 0.1619523017193567 x[4,3]
   - 0.102926746021588 x[4,4] - 0.1211442467682068 x[4,5]
   - 0.1764153760825974 x[4,6] >= 0
 findWorstP[2,1]: z - 0.1621621621621622 cashProportion[1]
   + 0.1621621621621622 cashProportion[2] - 0.1198918918918919 x[1,1]
   - 0.2684324324324324 x[1,2] - 0.0881621621621621 x[1,3]
   - 0.2224594594594594 x[1,4] - 0.0207567567567568 x[1,5]
   - 0.1181351351351351 x[1,6] + 0.1198918918918919 x[2,1]
   + 0.2684324324324324 x[2,2] + 0.0881621621621621 x[2,3]
   + 0.2224594594594594 x[2,4] + 0.0207567567567568 x[2,5]
   + 0.1181351351351351 x[2,6] >= 0
 findWorstP[2,3]: z + 0.1621621621621622 cashProportion[2]
   - 0.1621621621621622 cashProportion[3] + 0.1198918918918919 x[2,1]
   + 0.2684324324324324 x[2,2] + 0.0881621621621621 x[2,3]
   + 0.2224594594594594 x[2,4] + 0.0207567567567568 x[2,5]
   + 0.1181351351351351 x[2,6] - 0.1198918918918919 x[3,1]
   - 0.2684324324324324 x[3,2] - 0.0881621621621621 x[3,3]
   - 0.2224594594594594 x[3,4] - 0.0207567567567568 x[3,5]
   - 0.1181351351351351 x[3,6] >= 0
 findWorstP[2,4]: z + 0.1621621621621622 cashProportion[2]
   - 0.1621621621621622 cashProportion[4] + 0.1198918918918919 x[2,1]
   + 0.2684324324324324 x[2,2] + 0.0881621621621621 x[2,3]
   + 0.2224594594594594 x[2,4] + 0.0207567567567568 x[2,5]
   + 0.1181351351351351 x[2,6] - 0.1198918918918919 x[4,1]
   - 0.2684324324324324 x[4,2] - 0.0881621621621621 x[4,3]
   - 0.2224594594594594 x[4,4] - 0.0207567567567568 x[4,5]
   - 0.1181351351351351 x[4,6] >= 0
 findWorstP[3,1]: z - 0.1764861605435774 cashProportion[1]
   + 0.1764861605435774 cashProportion[3] - 0.2200194134776598 x[1,1]
   - 0.0483572079889402 x[1,2] - 0.2194899549960291 x[1,3]
   - 0.1178927552431097 x[1,4] - 0.1957819807630085 x[1,5]
   - 0.0219725269876754 x[1,6] + 0.2200194134776598 x[3,1]
   + 0.0483572079889402 x[3,2] + 0.2194899549960291 x[3,3]
   + 0.1178927552431097 x[3,4] + 0.1957819807630085 x[3,5]
   + 0.0219725269876754 x[3,6] >= 0
 findWorstP[3,2]: z - 0.1764861605435774 cashProportion[2]
   + 0.1764861605435774 cashProportion[3] - 0.2200194134776598 x[2,1]
   - 0.0483572079889402 x[2,2] - 0.2194899549960291 x[2,3]
   - 0.1178927552431097 x[2,4] - 0.1957819807630085 x[2,5]
   - 0.0219725269876754 x[2,6] + 0.2200194134776598 x[3,1]
   + 0.0483572079889402 x[3,2] + 0.2194899549960291 x[3,3]
   + 0.1178927552431097 x[3,4] + 0.1957819807630085 x[3,5]
   + 0.0219725269876754 x[3,6] >= 0
 findWorstP[3,4]: z + 0.1764861605435774 cashProportion[3]
   - 0.1764861605435774 cashProportion[4] + 0.2200194134776598 x[3,1]
   + 0.0483572079889402 x[3,2] + 0.2194899549960291 x[3,3]
   + 0.1178927552431097 x[3,4] + 0.1957819807630085 x[3,5]
   + 0.0219725269876754 x[3,6] - 0.2200194134776598 x[4,1]
   - 0.0483572079889402 x[4,2] - 0.2194899549960291 x[4,3]
   - 0.1178927552431097 x[4,4] - 0.1957819807630085 x[4,5]
   - 0.0219725269876754 x[4,6] >= 0
 findWorstP[4,1]: z - 0.1728060827741137 cashProportion[1]
   + 0.1728060827741137 cashProportion[4] - 0.1192937991417298 x[1,1]
   - 0.259525935312923 x[1,2] - 0.1219722934247285 x[1,3]
   - 0.2362835171798047 x[1,4] - 0.00311050948993405 x[1,5]
   - 0.0870078626767662 x[1,6] + 0.1192937991417298 x[4,1]
   + 0.259525935312923 x[4,2] + 0.1219722934247285 x[4,3]
   + 0.2362835171798047 x[4,4] + 0.00311050948993405 x[4,5]
   + 0.0870078626767662 x[4,6] >= 0
 findWorstP[4,2]: z - 0.1728060827741137 cashProportion[2]
   + 0.1728060827741137 cashProportion[4] - 0.1192937991417298 x[2,1]
   - 0.259525935312923 x[2,2] - 0.1219722934247285 x[2,3]
   - 0.2362835171798047 x[2,4] - 0.00311050948993405 x[2,5]
   - 0.0870078626767662 x[2,6] + 0.1192937991417298 x[4,1]
   + 0.259525935312923 x[4,2] + 0.1219722934247285 x[4,3]
   + 0.2362835171798047 x[4,4] + 0.00311050948993405 x[4,5]
   + 0.0870078626767662 x[4,6] >= 0
 findWorstP[4,3]: z - 0.1728060827741137 cashProportion[3]
   + 0.1728060827741137 cashProportion[4] - 0.1192937991417298 x[3,1]
   - 0.259525935312923 x[3,2] - 0.1219722934247285 x[3,3]
   - 0.2362835171798047 x[3,4] - 0.00311050948993405 x[3,5]
   - 0.0870078626767662 x[3,6] + 0.1192937991417298 x[4,1]
   + 0.259525935312923 x[4,2] + 0.1219722934247285 x[4,3]
   + 0.2362835171798047 x[4,4] + 0.00311050948993405 x[4,5]
   + 0.0870078626767662 x[4,6] >= 0
Bounds
 z <= 1
 -infinity <= cashProportion[1] <= 1
 -infinity <= cashProportion[2] <= 1
 -infinity <= cashProportion[3] <= 1
 -infinity <= cashProportion[4] <= 1
Binaries
 x[1,1] x[1,2] x[1,3] x[1,4] x[1,5] x[1,6] x[2,1] x[2,2] x[2,3] x[2,4]
 x[2,5] x[2,6] x[3,1] x[3,2] x[3,3] x[3,4] x[3,5] x[3,6] x[4,1] x[4,2]
 x[4,3] x[4,4] x[4,5] x[4,6]
End
