data/mps_files/q3/66_7.mps
NAME foo
ROWS
 N  OBJ
 E  allocateEach[1]
 E  allocateEach[2]
 E  allocateEach[3]
 E  allocateEach[4]
 E  allocateEach[5]
 E  allocateEach[6]
 E  allocateAllCash
 G  findWorstP[1,2]
 G  findWorstP[1,3]
 G  findWorstP[1,4]
 G  findWorstP[2,1]
 G  findWorstP[2,3]
 G  findWorstP[2,4]
 G  findWorstP[3,1]
 G  findWorstP[3,2]
 G  findWorstP[3,4]
 G  findWorstP[4,1]
 G  findWorstP[4,2]
 G  findWorstP[4,3]
COLUMNS
    z         OBJ       1
    z         findWorstP[1,2]  1
    z         findWorstP[1,3]  1
    z         findWorstP[1,4]  1
    z         findWorstP[2,1]  1
    z         findWorstP[2,3]  1
    z         findWorstP[2,4]  1
    z         findWorstP[3,1]  1
    z         findWorstP[3,2]  1
    z         findWorstP[3,4]  1
    z         findWorstP[4,1]  1
    z         findWorstP[4,2]  1
    z         findWorstP[4,3]  1
    cashProportion[1]  allocateAllCash  1
    cashProportion[1]  findWorstP[1,2]  1.2799180852425449e-01
    cashProportion[1]  findWorstP[1,3]  1.2799180852425449e-01
    cashProportion[1]  findWorstP[1,4]  1.2799180852425449e-01
    cashProportion[1]  findWorstP[2,1]  -1.6216216216216217e-01
    cashProportion[1]  findWorstP[3,1]  -1.7648616054357741e-01
    cashProportion[1]  findWorstP[4,1]  -1.7280608277411366e-01
    cashProportion[2]  allocateAllCash  1
    cashProportion[2]  findWorstP[1,2]  -1.2799180852425449e-01
    cashProportion[2]  findWorstP[2,1]  1.6216216216216217e-01
    cashProportion[2]  findWorstP[2,3]  1.6216216216216217e-01
    cashProportion[2]  findWorstP[2,4]  1.6216216216216217e-01
    cashProportion[2]  findWorstP[3,2]  -1.7648616054357741e-01
    cashProportion[2]  findWorstP[4,2]  -1.7280608277411366e-01
    cashProportion[3]  allocateAllCash  1
    cashProportion[3]  findWorstP[1,3]  -1.2799180852425449e-01
    cashProportion[3]  findWorstP[2,3]  -1.6216216216216217e-01
    cashProportion[3]  findWorstP[3,1]  1.7648616054357741e-01
    cashProportion[3]  findWorstP[3,2]  1.7648616054357741e-01
    cashProportion[3]  findWorstP[3,4]  1.7648616054357741e-01
    cashProportion[3]  findWorstP[4,3]  -1.7280608277411366e-01
    cashProportion[4]  allocateAllCash  1
    cashProportion[4]  findWorstP[1,4]  -1.2799180852425449e-01
    cashProportion[4]  findWorstP[2,4]  -1.6216216216216217e-01
    cashProportion[4]  findWorstP[3,4]  -1.7648616054357741e-01
    cashProportion[4]  findWorstP[4,1]  1.7280608277411366e-01
    cashProportion[4]  findWorstP[4,2]  1.7280608277411366e-01
    cashProportion[4]  findWorstP[4,3]  1.7280608277411366e-01
    MARKER    'MARKER'                 'INTORG'
    x[1,1]    allocateEach[1]  1
    x[1,1]    findWorstP[1,2]  1.4087631724902941e-01
    x[1,1]    findWorstP[1,3]  1.4087631724902941e-01
    x[1,1]    findWorstP[1,4]  1.4087631724902941e-01
    x[1,1]    findWorstP[2,1]  -1.1989189189189187e-01
    x[1,1]    findWorstP[3,1]  -2.2001941347765980e-01
    x[1,1]    findWorstP[4,1]  -1.1929379914172977e-01
    x[1,2]    allocateEach[2]  1
    x[1,2]    findWorstP[1,2]  1.6869320363496737e-01
    x[1,2]    findWorstP[1,3]  1.6869320363496737e-01
    x[1,2]    findWorstP[1,4]  1.6869320363496737e-01
    x[1,2]    findWorstP[2,1]  -2.6843243243243237e-01
    x[1,2]    findWorstP[3,1]  -0.0483572079889402
    x[1,2]    findWorstP[4,1]  -0.259525935312923
    x[1,3]    allocateEach[3]  1
    x[1,3]    findWorstP[1,2]  1.6195230171935665e-01
    x[1,3]    findWorstP[1,3]  1.6195230171935665e-01
    x[1,3]    findWorstP[1,4]  1.6195230171935665e-01
    x[1,3]    findWorstP[2,1]  -8.8162162162162147e-02
    x[1,3]    findWorstP[3,1]  -2.1948995499602908e-01
    x[1,3]    findWorstP[4,1]  -1.2197229342472853e-01
    x[1,4]    allocateEach[4]  1
    x[1,4]    findWorstP[1,2]  1.0292674602158797e-01
    x[1,4]    findWorstP[1,3]  1.0292674602158797e-01
    x[1,4]    findWorstP[1,4]  1.0292674602158797e-01
    x[1,4]    findWorstP[2,1]  -2.2245945945945944e-01
    x[1,4]    findWorstP[3,1]  -1.1789275524310969e-01
    x[1,4]    findWorstP[4,1]  -2.3628351717980470e-01
    x[1,5]    allocateEach[5]  1
    x[1,5]    findWorstP[1,2]  1.2114424676820684e-01
    x[1,5]    findWorstP[1,3]  1.2114424676820684e-01
    x[1,5]    findWorstP[1,4]  1.2114424676820684e-01
    x[1,5]    findWorstP[2,1]  -2.0756756756756752e-02
    x[1,5]    findWorstP[3,1]  -1.9578198076300851e-01
    x[1,5]    findWorstP[4,1]  -3.1105094899340452e-03
    x[1,6]    allocateEach[6]  1
    x[1,6]    findWorstP[1,2]  1.7641537608259739e-01
    x[1,6]    findWorstP[1,3]  1.7641537608259739e-01
    x[1,6]    findWorstP[1,4]  1.7641537608259739e-01
    x[1,6]    findWorstP[2,1]  -1.1813513513513511e-01
    x[1,6]    findWorstP[3,1]  -2.1972526987675385e-02
    x[1,6]    findWorstP[4,1]  -0.0870078626767662
    x[2,1]    allocateEach[1]  1
    x[2,1]    findWorstP[1,2]  -1.4087631724902941e-01
    x[2,1]    findWorstP[2,1]  1.1989189189189187e-01
    x[2,1]    findWorstP[2,3]  1.1989189189189187e-01
    x[2,1]    findWorstP[2,4]  1.1989189189189187e-01
    x[2,1]    findWorstP[3,2]  -2.2001941347765980e-01
    x[2,1]    findWorstP[4,2]  -1.1929379914172977e-01
    x[2,2]    allocateEach[2]  1
    x[2,2]    findWorstP[1,2]  -1.6869320363496737e-01
    x[2,2]    findWorstP[2,1]  2.6843243243243237e-01
    x[2,2]    findWorstP[2,3]  2.6843243243243237e-01
    x[2,2]    findWorstP[2,4]  2.6843243243243237e-01
    x[2,2]    findWorstP[3,2]  -0.0483572079889402
    x[2,2]    findWorstP[4,2]  -0.259525935312923
    x[2,3]    allocateEach[3]  1
    x[2,3]    findWorstP[1,2]  -1.6195230171935665e-01
    x[2,3]    findWorstP[2,1]  8.8162162162162147e-02
    x[2,3]    findWorstP[2,3]  8.8162162162162147e-02
    x[2,3]    findWorstP[2,4]  8.8162162162162147e-02
    x[2,3]    findWorstP[3,2]  -2.1948995499602908e-01
    x[2,3]    findWorstP[4,2]  -1.2197229342472853e-01
    x[2,4]    allocateEach[4]  1
    x[2,4]    findWorstP[1,2]  -1.0292674602158797e-01
    x[2,4]    findWorstP[2,1]  2.2245945945945944e-01
    x[2,4]    findWorstP[2,3]  2.2245945945945944e-01
    x[2,4]    findWorstP[2,4]  2.2245945945945944e-01
    x[2,4]    findWorstP[3,2]  -1.1789275524310969e-01
    x[2,4]    findWorstP[4,2]  -2.3628351717980470e-01
    x[2,5]    allocateEach[5]  1
    x[2,5]    findWorstP[1,2]  -1.2114424676820684e-01
    x[2,5]    findWorstP[2,1]  2.0756756756756752e-02
    x[2,5]    findWorstP[2,3]  2.0756756756756752e-02
    x[2,5]    findWorstP[2,4]  2.0756756756756752e-02
    x[2,5]    findWorstP[3,2]  -1.9578198076300851e-01
    x[2,5]    findWorstP[4,2]  -3.1105094899340452e-03
    x[2,6]    allocateEach[6]  1
    x[2,6]    findWorstP[1,2]  -1.7641537608259739e-01
    x[2,6]    findWorstP[2,1]  1.1813513513513511e-01
    x[2,6]    findWorstP[2,3]  1.1813513513513511e-01
    x[2,6]    findWorstP[2,4]  1.1813513513513511e-01
    x[2,6]    findWorstP[3,2]  -2.1972526987675385e-02
    x[2,6]    findWorstP[4,2]  -0.0870078626767662
    x[3,1]    allocateEach[1]  1
    x[3,1]    findWorstP[1,3]  -1.4087631724902941e-01
    x[3,1]    findWorstP[2,3]  -1.1989189189189187e-01
    x[3,1]    findWorstP[3,1]  2.2001941347765980e-01
    x[3,1]    findWorstP[3,2]  2.2001941347765980e-01
    x[3,1]    findWorstP[3,4]  2.2001941347765980e-01
    x[3,1]    findWorstP[4,3]  -1.1929379914172977e-01
    x[3,2]    allocateEach[2]  1
    x[3,2]    findWorstP[1,3]  -1.6869320363496737e-01
    x[3,2]    findWorstP[2,3]  -2.6843243243243237e-01
    x[3,2]    findWorstP[3,1]  0.0483572079889402
    x[3,2]    findWorstP[3,2]  0.0483572079889402
    x[3,2]    findWorstP[3,4]  0.0483572079889402
    x[3,2]    findWorstP[4,3]  -0.259525935312923
    x[3,3]    allocateEach[3]  1
    x[3,3]    findWorstP[1,3]  -1.6195230171935665e-01
    x[3,3]    findWorstP[2,3]  -8.8162162162162147e-02
    x[3,3]    findWorstP[3,1]  2.1948995499602908e-01
    x[3,3]    findWorstP[3,2]  2.1948995499602908e-01
    x[3,3]    findWorstP[3,4]  2.1948995499602908e-01
    x[3,3]    findWorstP[4,3]  -1.2197229342472853e-01
    x[3,4]    allocateEach[4]  1
    x[3,4]    findWorstP[1,3]  -1.0292674602158797e-01
    x[3,4]    findWorstP[2,3]  -2.2245945945945944e-01
    x[3,4]    findWorstP[3,1]  1.1789275524310969e-01
    x[3,4]    findWorstP[3,2]  1.1789275524310969e-01
    x[3,4]    findWorstP[3,4]  1.1789275524310969e-01
    x[3,4]    findWorstP[4,3]  -2.3628351717980470e-01
    x[3,5]    allocateEach[5]  1
    x[3,5]    findWorstP[1,3]  -1.2114424676820684e-01
    x[3,5]    findWorstP[2,3]  -2.0756756756756752e-02
    x[3,5]    findWorstP[3,1]  1.9578198076300851e-01
    x[3,5]    findWorstP[3,2]  1.9578198076300851e-01
    x[3,5]    findWorstP[3,4]  1.9578198076300851e-01
    x[3,5]    findWorstP[4,3]  -3.1105094899340452e-03
    x[3,6]    allocateEach[6]  1
    x[3,6]    findWorstP[1,3]  -1.7641537608259739e-01
    x[3,6]    findWorstP[2,3]  -1.1813513513513511e-01
    x[3,6]    findWorstP[3,1]  2.1972526987675385e-02
    x[3,6]    findWorstP[3,2]  2.1972526987675385e-02
    x[3,6]    findWorstP[3,4]  2.1972526987675385e-02
    x[3,6]    findWorstP[4,3]  -0.0870078626767662
    x[4,1]    allocateEach[1]  1
    x[4,1]    findWorstP[1,4]  -1.4087631724902941e-01
    x[4,1]    findWorstP[2,4]  -1.1989189189189187e-01
    x[4,1]    findWorstP[3,4]  -2.2001941347765980e-01
    x[4,1]    findWorstP[4,1]  1.1929379914172977e-01
    x[4,1]    findWorstP[4,2]  1.1929379914172977e-01
    x[4,1]    findWorstP[4,3]  1.1929379914172977e-01
    x[4,2]    allocateEach[2]  1
    x[4,2]    findWorstP[1,4]  -1.6869320363496737e-01
    x[4,2]    findWorstP[2,4]  -2.6843243243243237e-01
    x[4,2]    findWorstP[3,4]  -0.0483572079889402
    x[4,2]    findWorstP[4,1]  0.259525935312923
    x[4,2]    findWorstP[4,2]  0.259525935312923
    x[4,2]    findWorstP[4,3]  0.259525935312923
    x[4,3]    allocateEach[3]  1
    x[4,3]    findWorstP[1,4]  -1.6195230171935665e-01
    x[4,3]    findWorstP[2,4]  -8.8162162162162147e-02
    x[4,3]    findWorstP[3,4]  -2.1948995499602908e-01
    x[4,3]    findWorstP[4,1]  1.2197229342472853e-01
    x[4,3]    findWorstP[4,2]  1.2197229342472853e-01
    x[4,3]    findWorstP[4,3]  1.2197229342472853e-01
    x[4,4]    allocateEach[4]  1
    x[4,4]    findWorstP[1,4]  -1.0292674602158797e-01
    x[4,4]    findWorstP[2,4]  -2.2245945945945944e-01
    x[4,4]    findWorstP[3,4]  -1.1789275524310969e-01
    x[4,4]    findWorstP[4,1]  2.3628351717980470e-01
    x[4,4]    findWorstP[4,2]  2.3628351717980470e-01
    x[4,4]    findWorstP[4,3]  2.3628351717980470e-01
    x[4,5]    allocateEach[5]  1
    x[4,5]    findWorstP[1,4]  -1.2114424676820684e-01
    x[4,5]    findWorstP[2,4]  -2.0756756756756752e-02
    x[4,5]    findWorstP[3,4]  -1.9578198076300851e-01
    x[4,5]    findWorstP[4,1]  3.1105094899340452e-03
    x[4,5]    findWorstP[4,2]  3.1105094899340452e-03
    x[4,5]    findWorstP[4,3]  3.1105094899340452e-03
    x[4,6]    allocateEach[6]  1
    x[4,6]    findWorstP[1,4]  -1.7641537608259739e-01
    x[4,6]    findWorstP[2,4]  -1.1813513513513511e-01
    x[4,6]    findWorstP[3,4]  -2.1972526987675385e-02
    x[4,6]    findWorstP[4,1]  0.0870078626767662
    x[4,6]    findWorstP[4,2]  0.0870078626767662
    x[4,6]    findWorstP[4,3]  0.0870078626767662
    MARKER    'MARKER'                 'INTEND'
RHS
    RHS1      allocateEach[1]  1
    RHS1      allocateEach[2]  1
    RHS1      allocateEach[3]  1
    RHS1      allocateEach[4]  1
    RHS1      allocateEach[5]  1
    RHS1      allocateEach[6]  1
    RHS1      allocateAllCash  1
BOUNDS
 UP BND1      z         1
 MI BND1      cashProportion[1]
 UP BND1      cashProportion[1]  1
 MI BND1      cashProportion[2]
 UP BND1      cashProportion[2]  1
 MI BND1      cashProportion[3]
 UP BND1      cashProportion[3]  1
 MI BND1      cashProportion[4]
 UP BND1      cashProportion[4]  1
 BV BND1      x[1,1]  
 BV BND1      x[1,2]  
 BV BND1      x[1,3]  
 BV BND1      x[1,4]  
 BV BND1      x[1,5]  
 BV BND1      x[1,6]  
 BV BND1      x[2,1]  
 BV BND1      x[2,2]  
 BV BND1      x[2,3]  
 BV BND1      x[2,4]  
 BV BND1      x[2,5]  
 BV BND1      x[2,6]  
 BV BND1      x[3,1]  
 BV BND1      x[3,2]  
 BV BND1      x[3,3]  
 BV BND1      x[3,4]  
 BV BND1      x[3,5]  
 BV BND1      x[3,6]  
 BV BND1      x[4,1]  
 BV BND1      x[4,2]  
 BV BND1      x[4,3]  
 BV BND1      x[4,4]  
 BV BND1      x[4,5]  
 BV BND1      x[4,6]  
ENDATA
